p cnf 150 240
-75 -93 -8 0
129 130 36 0
46 8 83 0
-34 50 140 0
-100 -114 -4 0
125 -148 -5 0
-120 -47 -69 0
116 75 35 0
-137 124 63 0
125 -7 -108 0
-37 23 94 0
-146 -36 91 0
-77 -119 58 0
-78 130 140 0
-71 -43 -56 0
-103 -133 120 0
17 -59 5 0
34 -14 80 0
74 103 92 0
114 20 -84 0
11 114 -120 0
145 48 147 0
81 127 -63 0
5 46 -10 0
84 142 18 0
108 -96 -80 0
-48 87 5 0
105 97 -109 0
23 -12 -123 0
7 44 71 0
-114 124 -84 0
103 15 23 0
142 -121 72 0
-92 -3 -112 0
-100 -46 -23 0
-3 -102 -49 0
-96 126 -73 0
-31 72 -5 0
-84 -28 -89 0
27 24 147 0
-99 117 67 0
95 -9 84 0
-9 24 107 0
-83 132 147 0
16 -99 -4 0
42 25 -109 0
-110 71 -22 0
49 51 147 0
68 119 -44 0
-114 -112 5 0
-97 -136 -57 0
-86 -71 119 0
-14 -118 124 0
107 -25 -64 0
12 44 21 0
-90 -5 -30 0
13 150 -127 0
108 139 52 0
13 -114 105 0
-111 78 -14 0
112 32 -73 0
109 112 -3 0
-111 100 29 0
90 -3 -32 0
-3 113 1 0
47 -64 -33 0
-127 21 77 0
115 14 47 0
-5 -46 -100 0
76 -51 36 0
-139 -45 123 0
-43 64 54 0
-133 -23 30 0
15 -140 119 0
-54 -127 -53 0
108 -54 -13 0
10 9 -32 0
-16 7 -115 0
-95 94 -107 0
-128 10 -75 0
-56 4 -139 0
91 97 -72 0
-149 -46 115 0
-125 -36 122 0
122 37 -126 0
-36 73 -106 0
59 8 -81 0
16 99 32 0
102 89 116 0
21 114 104 0
-34 -16 -79 0
-125 30 36 0
-121 -16 -66 0
94 16 -51 0
108 -86 -141 0
9 -129 -114 0
-83 101 63 0
-56 -80 133 0
-137 -71 65 0
97 -105 -76 0
41 -138 107 0
-54 -120 44 0
22 -38 -51 0
119 -38 1 0
-117 48 -38 0
-101 -132 128 0
31 108 -103 0
-106 -135 -53 0
-129 -52 -144 0
146 17 -81 0
59 53 146 0
-61 -102 -77 0
11 -64 -54 0
51 98 115 0
-121 75 147 0
53 -100 61 0
58 -30 -89 0
36 7 -141 0
117 81 93 0
70 19 25 0
-127 -9 -120 0
-41 -148 120 0
141 97 -50 0
-92 -95 61 0
-113 -53 142 0
35 129 115 0
17 11 128 0
58 66 32 0
45 87 1 0
-132 1 -70 0
-67 -30 -123 0
50 -51 -39 0
-74 -14 112 0
-110 -9 -139 0
120 -12 -111 0
133 -20 139 0
19 -64 33 0
-67 -86 22 0
-140 43 117 0
53 -29 -47 0
-142 137 -102 0
-52 92 -39 0
71 72 -16 0
-55 135 -40 0
-140 -142 65 0
-40 -119 -85 0
-54 14 -27 0
72 -92 -76 0
-86 -144 -117 0
-136 148 66 0
x 2 4 5 -8 9 -10 11 -12 13 -14 -15 -16 17 18 -19 -20 21 23 26 -27 -31 -35 -37 -39 -42 43 47 -48 -51 52 54 55 -57 -58 -61 -65 66 69 -70 72 73 -75 77 81 -83 84 -92 -93 96 -98 -100 -102 103 -107 108 111 112 113 115 -119 123 128 -130 -131 136 -137 138 140 -141 -142 -149 150 0
x 1 -4 -6 9 10 16 -17 -18 -22 24 -25 28 -29 31 -33 -36 -41 -42 -47 -48 -49 51 52 -53 -54 55 58 -59 -61 62 63 64 -65 66 67 -71 72 -73 74 -75 -77 79 80 -81 86 88 -92 93 -96 -97 -100 -101 102 103 -107 -118 120 122 124 126 127 129 -131 133 145 146 -147 -148 -150 0
x -1 3 -4 -7 11 13 -14 15 -16 17 18 19 22 23 25 -26 -30 32 33 34 36 40 -41 -43 -44 -47 -48 -54 55 59 -60 62 -63 66 67 68 -70 -72 -76 78 79 -80 -84 -85 -90 -93 -94 95 99 103 105 -110 -111 -112 113 -114 117 -122 123 125 126 -134 135 139 -140 -145 146 147 149 0
x 1 -2 5 -7 -8 9 -10 -13 22 24 -25 26 27 29 -30 -32 -35 36 -38 -39 -40 -43 -45 -47 49 52 53 55 58 60 -61 65 66 68 70 72 73 -74 75 77 -80 -81 -82 -84 -85 -86 -89 -93 94 -97 -98 99 103 104 106 108 109 -117 -121 122 124 126 -128 -130 -133 -134 -135 136 140 -141 142 143 144 145 146 148 -149 150 0
x 1 2 4 8 9 11 -13 -16 -17 18 -20 -26 28 29 30 31 -32 -35 36 -37 -39 -41 -44 -45 -46 47 -49 50 51 54 55 56 -58 59 -61 -62 -63 64 -66 -68 69 -73 76 -77 -80 -81 82 -83 84 86 88 90 91 92 -93 100 -102 -104 -106 -108 109 -111 114 -117 118 119 -120 -122 -123 124 -125 127 129 130 -135 -136 -138 -143 -144 -145 -147 149 -150 0
x -6 7 8 14 17 18 19 -20 -21 -24 25 30 31 34 -38 46 47 -48 -49 51 -53 56 -57 -58 59 61 63 65 66 67 74 75 76 80 -82 83 84 -89 -90 -93 94 97 -99 -103 -109 -110 111 -116 117 -118 119 123 124 -127 128 129 131 -132 134 -135 136 -139 -141 142 -148 -149 0
x -1 2 -3 -10 -11 12 -13 20 -21 22 23 25 26 32 -33 34 35 -38 -39 41 43 44 45 46 51 53 55 -56 -58 59 -61 -65 -67 -68 69 -70 71 -72 75 77 78 -80 82 -83 88 -91 -93 96 -99 101 -102 104 105 -107 108 109 -110 114 -115 -122 123 -124 126 -127 128 130 -132 134 -138 -141 142 147 -150 0
x 2 -3 5 -6 7 9 -10 -11 -12 -13 -14 21 -27 -28 -29 -33 -34 35 38 40 41 -42 44 45 47 -50 51 52 -53 55 -56 -57 58 59 62 67 70 71 -72 74 75 76 -77 79 82 83 84 86 87 -88 -89 91 94 95 -96 -97 -99 -101 -102 -103 108 110 -111 112 114 -115 -116 -118 -119 -124 125 126 129 133 -134 -135 -140 142 -145 -147 148 149 0
x 1 -2 -7 8 -11 -13 -14 18 -19 21 -26 27 29 30 -33 40 41 -43 50 52 53 -54 56 -57 -59 -62 64 -66 68 -69 -71 -72 -74 -87 91 93 -94 96 -97 -102 103 -104 -109 110 113 118 121 123 124 125 127 -128 -131 -135 -136 137 -139 140 146 147 148 -150 0
x -1 -4 -5 9 10 12 17 -18 -20 21 22 -23 24 -26 -30 -31 34 -37 41 -43 44 -47 -48 -49 50 56 -57 58 -59 -61 -62 -64 66 -69 -74 75 79 -81 83 -84 -86 -87 89 90 91 92 -94 96 98 -99 103 109 -110 112 113 -114 -116 -121 -122 -124 126 -127 -130 138 141 144 145 146 -147 149 0
x -1 -2 -4 -5 6 -7 -8 11 14 16 -18 20 21 -23 -24 25 -26 -28 31 33 36 -37 39 40 43 45 -46 -51 53 54 55 56 -58 60 -61 62 -68 69 70 -71 -79 -81 83 -86 -87 -90 91 -92 -94 97 98 99 104 -105 106 -107 111 -113 116 118 -120 -122 -123 -127 128 129 -132 -134 -135 -138 139 140 141 -142 -143 144 -145 -146 147 -149 150 0
x -2 3 -6 -8 -11 12 -13 17 -18 21 22 27 28 -29 -30 -31 -32 -33 34 39 -40 -42 45 -47 48 -51 -52 -54 56 -59 -61 -63 -67 -70 71 -72 74 -77 -80 -82 87 89 91 -94 98 -99 100 -106 -108 -111 112 -113 115 117 -118 119 121 122 -124 125 -127 128 -129 -130 -131 -135 136 -139 140 142 -144 -145 -148 0
x 4 5 6 8 9 -12 -14 -16 -17 -18 -19 -23 -25 26 -28 -29 -31 -32 -33 -34 -35 -36 40 41 42 43 -46 50 51 52 53 -54 57 58 -59 -60 -61 -62 63 -69 72 -74 -75 -83 -84 86 -87 -90 -95 98 -102 103 -104 -105 107 108 -111 -114 117 -118 -120 -121 -122 124 -126 -127 -130 -131 132 134 135 138 -139 -140 141 142 150 0
x -1 -3 -5 -6 9 -10 -11 -12 13 -14 -15 17 -21 22 -25 30 -31 -33 34 35 38 39 -41 -51 -52 -53 54 55 56 59 60 -61 62 -63 -64 -66 -67 69 70 71 -72 -73 -75 78 -83 -84 85 -89 -90 -92 96 -99 -101 102 -104 -106 -108 -111 113 118 -120 125 -127 -128 -130 134 136 -137 -138 141 -143 -144 -147 148 0
x -2 -4 5 12 -13 14 -15 -17 -19 20 22 -23 25 -28 32 33 -34 36 37 38 41 -43 45 48 50 52 -53 -54 -55 59 -63 -71 73 -74 75 -78 79 80 81 -82 85 -88 -89 -93 94 -95 96 97 -98 -99 -100 -102 105 -107 -109 112 -115 116 -118 -121 124 126 127 131 -133 -135 -136 -138 -139 -147 149 150 0
x 2 -6 7 -8 9 10 15 -16 -18 20 -21 22 -24 25 30 -32 33 -34 -36 39 40 42 -43 44 -45 46 47 -48 -51 -53 -57 61 62 65 -67 -68 -70 72 75 -76 -79 -84 -86 -89 90 -91 92 -94 -96 97 -100 -101 103 -105 -107 -108 109 -112 -115 116 117 122 124 125 -126 127 -128 130 -131 132 133 -137 -139 140 141 145 146 -147 149 0
x 1 2 -3 -4 6 7 8 12 15 -18 -19 -22 23 27 30 -32 33 -34 -35 36 -40 -42 43 44 47 -48 -49 -51 54 55 57 58 59 -62 -65 -67 -71 72 73 74 -76 -78 79 83 -84 -86 87 89 91 92 -93 95 99 101 103 -106 -111 112 -113 114 -115 120 -122 125 126 128 -129 130 131 -136 137 140 143 145 -146 147 -148 -149 0
x 5 8 9 -10 11 12 13 -16 23 26 28 29 -31 -33 35 -40 -41 -42 -43 -44 -46 -48 52 53 54 62 -63 -66 74 -77 -79 81 -82 -83 84 85 -87 -90 92 95 96 98 -100 102 105 -107 109 -116 -118 119 -125 128 129 131 -134 -143 -145 146 147 148 149 -150 0
x 3 10 -11 16 -18 23 24 -26 27 28 -29 -35 -36 38 -39 40 -41 42 -44 46 47 -49 50 52 -54 55 -59 62 67 69 -73 74 -76 -77 80 81 85 86 87 88 -89 -90 -95 98 -99 102 103 -105 -107 108 109 110 112 -114 -115 117 -118 119 -120 122 -126 127 -131 132 133 -134 136 137 138 140 141 144 150 0
x -1 -2 3 -4 6 -8 9 -10 -11 -16 -21 22 27 -29 31 34 36 37 -39 42 -43 44 50 51 53 -54 -57 -58 -59 -60 -64 65 69 -71 72 -75 76 77 79 80 84 87 88 89 91 94 98 99 -100 -106 108 109 111 112 113 114 115 116 -122 124 126 -127 132 133 134 -138 140 -141 142 143 -145 -147 149 150 0
x -4 -5 8 11 -13 -14 15 17 -20 -22 -23 -25 29 -31 -32 33 -34 38 40 -42 -43 44 46 -47 -49 50 -53 -55 -56 57 59 -65 -66 67 69 71 72 -75 -76 -78 80 -81 82 83 -85 86 -88 -90 -94 95 -100 -101 -102 -105 106 109 -110 113 114 -115 -116 -117 -118 -119 122 123 126 -128 -132 -133 135 136 -140 -141 -144 149 -150 0
x -6 -7 -8 -11 -13 -15 -18 19 -20 22 23 24 -26 -28 29 -31 -32 33 -34 -37 38 -39 40 -41 43 49 50 51 -53 -57 58 -59 -60 -63 65 66 67 68 -73 78 81 82 -84 -85 88 -89 90 -91 95 96 -97 -98 99 100 -101 102 -103 104 -107 108 109 110 111 -113 115 116 -120 125 130 135 -139 -140 -141 -146 148 149 150 0
x -2 4 -6 -7 8 -11 -12 -13 17 18 -21 -22 23 -24 27 -28 -29 31 -32 -33 36 -37 42 45 -48 49 -50 -51 -52 55 -56 -57 63 65 -67 -69 -70 72 73 -74 75 -76 -78 -79 -81 -84 85 86 87 88 90 92 93 -95 -96 97 101 -102 -103 -105 106 107 -108 111 113 115 119 -120 -121 122 -123 126 127 128 -130 -131 -132 133 134 -135 -138 140 -144 -146 -147 -148 149 150 0
x 2 -3 4 5 -7 8 -10 -17 -19 -20 21 -23 -24 -25 -26 -27 -28 -29 30 -33 -35 -37 39 40 -41 44 48 -56 58 -61 62 63 -64 65 -67 -68 69 -71 72 -74 -75 -77 -80 81 82 83 84 -85 87 88 90 93 -94 95 -96 98 99 -100 -102 103 104 -106 109 111 112 -113 -114 115 122 -123 124 -125 -127 128 -130 -132 -133 -134 135 138 -139 -141 -142 143 145 -146 148 0
x 1 6 8 9 12 18 -22 23 -25 -27 29 -35 -37 38 -40 -42 -43 44 45 46 50 52 -53 54 -61 -62 -63 -64 -67 -69 -73 -74 -75 -76 77 78 79 -80 -81 -86 -87 88 -89 91 92 93 94 -95 96 98 100 -101 102 -105 -106 -107 -108 109 -110 114 -115 119 -120 121 124 129 130 132 -133 -135 -138 139 141 143 -144 146 -147 -148 0
x 4 -6 -7 8 -9 -13 -15 -16 17 -18 19 20 21 22 -23 -24 -26 -29 32 -35 37 -39 -43 44 -46 -47 -49 51 -53 -55 56 -60 61 62 63 -67 -69 -70 -71 -74 -75 76 77 -78 79 -82 -83 -87 88 -90 91 94 -95 96 97 -100 -101 -102 103 105 106 107 -109 -112 -113 115 118 119 -120 121 122 -124 -125 -126 -128 129 130 -131 -132 136 -139 -140 -141 -142 144 145 -146 148 -149 0
x -1 2 4 6 11 -15 19 -21 -22 23 27 30 32 -33 -34 -38 40 41 -42 43 -44 48 -50 51 -52 -56 58 62 -64 65 68 -70 72 74 75 76 -81 -82 -83 89 -93 -94 101 102 107 108 112 113 -116 -117 118 -122 124 -127 -128 -133 136 -137 -138 139 -141 143 145 -147 148 -149 0
x -1 -3 -7 13 16 -17 18 -23 24 31 33 34 36 37 -38 40 41 43 -44 46 -47 48 -49 50 51 -54 -55 -57 -65 68 -70 71 74 -77 78 83 85 91 92 -94 97 99 -104 110 -113 -115 116 121 -123 125 127 -129 133 -137 138 -139 140 -141 -143 -145 146 -148 149 0
x 2 3 5 -8 9 -12 -13 -15 16 -17 -19 20 21 22 23 24 -25 26 -27 31 36 38 -40 -41 42 -43 -49 -51 -53 -56 -61 62 -63 64 -68 -69 -70 -71 72 -73 75 -76 -78 -82 -83 -85 87 89 91 93 -94 96 100 -105 106 108 111 112 113 -115 116 118 122 -123 -127 128 -130 131 133 134 135 144 -145 -147 -148 149 -150 0
x 2 4 -9 -10 -11 -12 -13 -14 17 -19 -21 25 -26 29 32 -33 -34 -36 37 38 39 -44 46 47 48 51 -52 -54 -58 66 -68 -72 74 -75 80 81 -84 85 -87 -89 -91 -93 97 -98 99 -100 101 -102 -104 105 -106 107 -108 109 -113 -115 116 117 118 -122 -125 127 131 138 -139 142 144 -146 -147 -148 0
x -2 4 7 8 -10 11 12 16 -17 -21 -22 -23 -24 25 27 29 30 -32 34 -37 38 40 48 49 53 -54 55 56 -57 -58 -63 -64 65 -66 -68 -69 -72 -73 76 -82 -85 -88 89 91 -93 94 96 99 -101 105 -107 -108 -111 -113 114 115 -116 -117 -118 121 122 123 124 -125 -126 -127 129 -130 133 135 137 139 -141 -143 -147 0
x -4 -6 -8 9 -10 -11 12 -13 15 -18 -21 -22 23 -27 29 31 37 -38 -39 40 -43 -44 47 48 -49 -51 -54 55 -56 -58 59 60 -62 63 -65 -66 69 70 -71 -72 79 83 85 -87 90 -95 97 99 -103 104 -106 -111 113 -114 115 116 122 -123 -130 -131 -137 140 -141 -142 -144 145 -147 148 0
x 1 2 3 -7 -8 -10 -13 -14 -16 17 18 20 22 -23 -30 -32 -34 38 -44 46 -48 -49 50 51 -53 55 56 57 59 60 -62 -65 -67 -70 73 75 -76 -79 -83 84 -85 86 93 -96 97 99 100 -101 105 106 -107 -108 -109 114 115 117 118 -120 121 127 129 134 135 -137 139 -141 -142 143 144 -147 148 -150 0
x 3 4 -5 7 -8 10 11 -13 -14 -17 19 -21 -23 25 28 -29 30 35 -40 42 -44 -45 -48 -51 52 53 54 -56 -58 59 -60 61 -62 -66 67 69 -70 72 74 82 -86 -88 89 -91 92 -94 -96 -97 -104 -105 -110 111 -112 114 -116 117 118 -122 125 126 -129 131 135 -136 -137 -138 139 -140 -144 -145 147 148 -149 -150 0
x -1 5 -6 10 11 -13 14 -16 -17 -18 21 -22 -23 -25 27 -31 36 -37 41 46 47 -49 -55 -56 57 58 60 -61 -62 -63 -71 -72 73 74 -75 76 77 -80 -81 -82 -86 87 -92 93 -96 -97 -99 -100 -101 -105 -106 110 114 125 126 -127 128 130 131 -133 -134 -135 -137 -139 142 -145 146 148 -150 0
x -3 -5 6 -7 -9 12 -13 -14 -15 16 17 19 -20 21 -24 -25 28 31 -36 -37 38 40 -42 46 47 48 51 -53 54 55 -59 -60 -64 66 67 68 -69 -70 71 -74 77 -79 -82 -83 -84 -86 91 -92 93 94 96 -100 101 -104 -105 -106 -107 110 111 -112 117 -121 -124 126 127 128 -129 130 -131 -133 -135 137 140 141 -142 143 -144 -148 150 0
x -1 4 -5 6 8 9 -12 -13 -14 -16 21 -22 24 27 28 -29 31 -33 36 37 43 48 -51 -52 -54 56 -57 58 61 62 63 -64 -65 -66 -67 69 -70 71 72 73 74 76 78 -79 -80 -82 -85 -87 90 -91 -92 94 -95 -97 101 -102 -104 105 106 107 109 -116 -117 -121 -124 125 -127 128 -129 -132 -133 -134 136 -141 142 143 145 -147 0
x 1 3 7 8 9 10 11 -13 -14 -15 16 -21 -23 -25 -27 -29 -30 33 34 36 37 -39 -43 44 45 -49 -52 54 -55 57 59 62 73 76 77 -80 -81 -82 87 88 94 -100 -102 -103 -104 -105 -107 -109 -111 113 -117 120 -121 122 124 126 -127 129 131 132 135 139 144 -148 149 150 0
x 1 2 4 -5 -6 -9 -11 12 13 16 17 -18 21 -23 25 -27 28 -29 30 33 -34 36 -39 42 -43 -50 51 52 53 -54 55 56 58 66 -67 -68 70 -73 74 -76 80 82 -84 -88 89 91 -93 -94 -96 97 -98 -101 103 105 106 -112 115 -117 -118 119 -120 121 -122 -123 125 -132 -133 -134 -135 -137 138 139 -142 143 144 145 -147 149 0
x -5 -8 11 12 17 18 19 22 -23 -24 -26 -28 29 -31 -32 34 35 36 -39 40 42 48 -50 -51 -53 -54 55 -56 -58 -59 60 61 -62 63 -64 65 -67 -72 78 -79 -80 -84 85 86 87 90 91 -92 -93 -94 -95 98 99 100 104 -105 107 109 110 121 123 124 -125 126 127 -128 -129 -131 132 134 -136 139 -140 -142 -143 145 -147 -148 0
x 3 5 6 7 8 10 -13 15 -16 22 26 -27 28 29 -31 -36 -42 43 -44 -46 -47 -48 -49 -62 -64 65 -71 72 -75 -78 -82 84 85 86 -88 -89 -91 -92 -95 96 97 -98 99 -101 102 -103 -106 107 112 -117 -118 120 122 123 126 128 -129 130 136 -137 -138 139 -140 143 144 147 148 149 0
x 1 -3 -4 6 7 8 -9 -12 13 14 17 18 -19 -22 -24 25 26 -28 29 33 -34 -36 -37 -38 42 -43 44 -45 46 48 53 -55 -59 -63 64 65 -66 67 68 70 -71 72 -76 -77 -80 -81 -82 -84 93 -96 98 99 100 101 -102 104 -105 -106 109 -110 -115 117 -121 122 123 -124 125 -127 -128 -133 134 135 142 -146 -147 0
x -3 7 -8 -9 -14 -16 17 -19 -20 21 23 -24 -27 28 30 32 -33 35 -36 41 43 -47 -48 -54 -55 -56 -60 61 62 -63 65 -66 -67 72 73 74 75 -77 -79 80 82 -83 84 87 -89 91 96 -97 98 99 -107 -109 -110 111 -112 -113 -116 -117 120 -121 123 -125 -127 130 -131 -133 135 -136 -141 -143 145 -146 0
x 1 -2 6 -9 10 12 13 14 -16 20 21 24 -27 28 29 30 31 -32 -35 36 -37 39 -40 47 48 49 -52 55 -59 61 65 66 68 -72 73 -74 79 -80 -83 85 86 -87 -88 89 91 -93 97 -99 -100 103 104 107 -108 -110 111 112 -113 116 120 130 -131 133 135 -137 -141 142 -144 -149 0
x 3 -6 7 8 11 12 17 -19 20 22 24 26 -27 -30 33 35 -41 44 46 48 50 -51 -54 -55 57 -61 -63 70 72 73 -75 -76 78 -81 82 -83 84 -85 -87 -90 91 -93 94 96 -97 -98 -99 -102 105 -106 -109 -112 113 -115 -116 -117 118 -119 123 -125 127 129 -133 134 -138 139 141 145 147 -148 149 -150 0
x -1 -2 3 -4 -7 -9 10 -12 -13 14 -20 -21 22 -24 26 27 28 31 34 36 -37 39 41 42 -44 45 -46 -48 -49 52 53 54 -55 56 58 -60 62 65 66 -67 69 -70 73 -74 -76 -78 -79 81 -86 -91 -94 -100 -103 104 105 -106 -109 -110 -111 114 122 -123 -125 128 130 -131 132 133 -135 139 142 144 145 -147 150 0
x -1 -2 4 -5 -6 9 -11 -13 14 25 -26 27 -31 -32 -33 -35 36 37 39 -40 -41 42 -47 -48 -50 51 -52 61 -64 65 66 -67 -68 -69 74 77 80 81 84 -86 -87 88 91 94 96 99 100 101 -102 -103 104 105 108 112 -114 -115 120 -121 -123 126 127 128 129 130 -131 133 -135 136 138 -140 142 -143 144 146 149 150 0
x -4 7 -9 -13 -16 -22 25 26 27 -35 -36 40 41 -42 43 -44 -45 -47 -48 50 -51 -52 -59 -61 -66 71 72 -74 76 -83 84 85 87 88 89 -90 92 -95 99 -100 -102 -104 -107 -108 112 -117 119 -124 125 127 -129 -130 131 -132 134 -135 139 140 -143 -145 -148 0
x 1 4 6 -10 14 15 17 -22 -26 27 28 -29 -30 -36 -38 39 -41 -44 -45 46 47 49 52 -54 60 -63 -65 67 71 -72 -73 -74 -76 -78 79 81 82 83 85 -88 -89 -91 -92 94 -98 100 -102 104 -107 -108 -109 111 114 115 -116 -120 121 -124 126 127 -130 132 133 134 -137 138 143 145 148 -149 0
x -2 -3 7 12 -13 14 -15 -16 -17 -21 -22 -23 24 -26 -28 -30 -31 -34 -36 38 -40 -41 43 44 -47 48 -49 51 52 58 -60 61 64 -67 69 70 72 73 -76 -77 -79 -83 86 87 89 -91 92 -93 -95 97 -98 -99 100 -106 -107 -112 114 -115 117 -121 -124 -127 129 130 -131 132 135 137 138 144 146 -148 -149 150 0
x 5 -6 -7 11 12 -13 -14 16 20 22 -23 27 -28 32 33 34 -36 39 -42 -44 -49 51 -54 -57 -58 59 61 64 -77 -82 -83 -84 -85 -86 -87 -88 89 -90 -94 96 -97 -98 107 109 111 112 113 114 115 -117 118 -119 -122 -125 128 133 -138 -139 141 -143 -144 145 -146 -148 -149 150 0
x -1 -3 4 -5 -10 15 -16 -17 18 -25 26 28 30 -32 34 -35 37 -39 40 -41 42 -48 -51 -52 -54 -56 -57 61 -63 -68 69 -71 76 77 78 -82 83 87 -88 -91 98 -99 -102 104 -108 -109 110 -111 -112 -116 -119 120 122 -123 126 -127 -128 -129 133 -134 -135 136 138 142 -144 -145 146 148 -150 0
x 2 3 8 12 -15 -16 -17 18 -19 21 23 24 29 31 -32 35 -36 38 39 -40 44 46 47 52 -53 55 58 -59 60 -63 64 -65 -67 68 -70 73 -74 -75 82 88 -90 -93 96 98 100 101 104 107 108 -109 113 114 117 -120 -125 126 128 -132 -134 138 -140 142 -143 -149 -150 0
x -2 -7 -9 12 -14 -16 -22 23 24 -25 26 27 29 30 32 -34 -35 -37 -40 -43 44 46 47 -48 51 53 54 -55 56 -57 59 60 -61 62 64 65 66 70 71 72 75 76 78 -84 87 88 -89 90 -92 94 -95 97 100 -101 103 -105 -106 -108 -113 114 116 117 -118 119 -121 -122 123 -124 125 126 -129 130 -131 -133 -136 -137 -138 142 -144 -146 150 0
x 2 -9 -11 -13 15 16 17 -18 19 -20 21 22 -24 -26 -27 28 29 33 -35 -37 -38 -39 41 47 -48 50 51 -52 -54 -55 -56 57 -58 -60 -61 -65 -66 -67 68 -69 -70 71 -72 73 -76 77 80 -81 -82 84 85 -86 89 90 93 -94 -97 99 100 -105 -109 -110 -112 -113 -114 116 118 119 122 -125 128 -131 -134 136 -137 -142 -144 -146 147 -149 -150 0
x -1 5 8 10 -12 -16 17 18 -20 21 -24 28 29 30 31 32 34 -35 -36 37 40 -45 49 51 54 -55 -56 57 58 59 60 -61 -62 65 -66 68 -69 -70 71 -73 -74 75 -76 79 -80 84 -86 -87 89 90 -91 93 95 97 -98 -104 -105 107 108 -109 111 114 115 -118 -119 120 -122 -124 -125 127 -129 130 133 135 137 139 -141 143 -145 148 -150 0
x 1 3 5 6 8 9 11 -12 -13 16 -17 19 22 25 -30 -35 36 -38 -40 -41 -42 -43 -44 -46 49 -50 52 54 -57 -63 -64 -66 67 68 -71 -72 -74 -75 79 -80 -81 -85 87 89 91 92 -94 -96 -97 -100 101 102 -104 105 -106 108 -111 112 -115 116 -118 -119 -124 -125 -126 -131 132 135 139 140 142 144 150 0
x -4 5 6 9 10 15 16 18 19 -20 21 22 24 -26 -28 29 31 -33 -35 -36 -40 41 -46 51 -53 -57 58 60 -61 -62 63 -64 66 -67 -69 -70 73 74 77 79 -82 84 -86 -87 -89 90 91 94 -97 98 -102 -103 -105 106 107 -108 -110 -112 113 -114 116 117 118 -119 -120 -123 124 125 127 129 -132 133 -134 -135 137 -138 139 140 -142 -144 -145 149 0
x -8 -15 18 -19 20 22 23 30 33 36 38 -40 41 43 -44 45 -47 -48 -49 -51 -54 -55 56 59 60 61 -62 -63 -64 66 -67 68 69 70 -71 -73 75 76 77 -78 -80 81 -86 -87 -88 92 -93 -94 -96 -98 99 -100 -101 -102 -105 108 110 111 -113 -115 117 -121 124 128 -129 -131 132 -134 -137 138 -139 -141 -145 146 149 150 0
x -2 3 19 -20 -22 -24 -27 -30 31 -32 -34 35 38 39 -40 42 -44 46 49 -52 53 54 57 -63 -64 -65 -67 -68 69 71 -73 74 -75 77 -78 -79 82 -84 85 86 87 -91 -93 94 96 98 101 -102 -104 -106 -107 108 -110 -111 113 -115 116 119 120 -121 -122 -123 -124 125 -126 129 -130 -131 -134 135 -136 138 139 -146 -147 -149 150 0
x -2 3 -4 5 6 -9 10 12 -14 -16 -19 -23 -24 -25 -27 -28 29 -30 -31 32 33 38 -42 43 45 -47 -49 -53 57 -60 65 -67 -68 71 -72 75 76 -77 79 81 88 -91 92 -95 -96 97 102 103 -105 -106 107 -112 114 -116 117 121 122 -124 -125 126 -127 130 -133 -134 -136 140 141 -143 144 -145 146 147 0
x 4 -5 8 -10 -13 -14 -15 -17 18 20 -21 23 27 -29 -32 33 35 -36 -37 -38 -43 45 -47 -48 -52 53 55 58 59 -61 -62 63 -66 67 69 -70 71 -72 -74 -76 -78 80 -81 84 87 -89 92 -94 96 97 -99 -103 108 -109 -115 117 118 123 -124 -129 131 132 133 136 -139 -140 -142 -143 -145 146 -147 -149 0
x -1 -5 7 14 -16 17 18 -20 -27 -30 31 34 -35 37 -40 -42 -45 46 -47 -48 49 51 52 -53 54 -58 62 -64 66 67 68 -70 -71 -73 76 -79 -83 -84 85 87 88 90 91 -93 -94 95 -96 97 100 -102 103 -104 105 -110 111 112 118 119 -123 124 -125 -127 -128 -130 -134 137 -138 -139 -142 143 146 -147 148 149 0
x 1 -4 -5 -6 7 -13 -15 -16 17 -20 25 27 29 32 -33 -36 -37 39 -42 45 -47 -48 49 -55 -56 -57 60 -65 67 -68 70 73 75 76 79 80 83 -87 -88 90 -95 -97 98 102 103 104 105 107 -108 -113 115 -117 -118 -119 -120 124 125 -126 130 -131 132 -133 134 -137 -139 140 -141 143 144 -145 146 0
x -1 -2 -4 6 7 9 -11 17 -18 19 -20 21 -22 23 25 26 -28 -30 -32 34 -35 -39 -40 -43 -45 47 -49 50 -51 -52 53 -55 -56 -57 58 60 61 63 66 68 69 -71 -72 -73 75 76 77 78 79 81 -86 87 88 89 95 -97 98 99 -100 101 -104 -106 107 -108 109 110 112 114 117 118 122 -124 -127 -128 -129 -132 133 134 -136 140 -142 145 -146 147 0
x 6 -8 11 -13 -14 15 -16 18 20 -21 23 25 27 -31 32 -33 35 37 38 39 41 42 48 -50 56 -62 -64 -67 -70 73 -74 -75 -76 79 80 -83 84 85 87 -90 94 -95 -96 100 102 -103 105 106 -108 -110 -112 -113 -114 -115 -116 -117 -118 -122 -123 -126 127 130 131 137 -138 139 -141 -142 -143 146 -147 0
x -1 -2 -3 4 5 6 -10 11 -13 -17 -18 -23 24 -26 -30 31 -33 -36 37 38 -39 -41 43 45 48 -51 -52 56 61 63 -66 -67 -68 -69 -71 -73 75 -76 -77 -78 -81 -83 -86 -87 -88 89 -90 -91 -92 93 -94 -95 96 -103 -104 -105 106 108 109 -111 114 120 121 -122 -123 -125 -128 -129 130 131 132 -133 135 -138 139 140 -141 143 145 146 -147 -148 149 -150 0
x 1 2 3 -4 5 -8 9 10 -11 15 -18 19 21 -22 -23 -25 -27 -28 30 34 -37 40 43 -44 -45 -46 47 50 51 53 -54 55 59 -62 -65 -66 68 -70 -71 -72 -74 76 77 -78 80 81 83 85 -90 91 -95 -97 -98 102 104 -108 -110 -111 -112 -116 -117 -119 -120 -122 123 124 128 -129 130 -133 134 138 141 142 146 147 150 0
x -1 -4 5 6 -7 9 10 -17 -18 -20 21 24 28 34 -37 38 -40 43 44 -45 -47 -48 49 51 -63 -66 68 -69 72 -73 -77 -79 80 -81 -82 -83 86 -88 91 92 94 97 98 102 104 -105 -106 107 110 -112 -114 -115 -117 -119 -121 122 -124 126 -133 -135 -136 -140 141 143 -144 147 -148 -149 0
x -2 -4 5 -7 8 -10 -15 16 17 20 21 22 24 26 31 33 34 -36 -37 38 -39 40 -41 -44 -45 -47 -49 -50 -51 52 -53 54 -55 -58 -60 61 -62 -66 71 73 75 76 -79 -80 -81 82 85 -86 -89 91 94 95 96 -99 101 102 -104 106 107 109 -110 -111 -113 115 -117 -118 120 -122 123 -124 126 127 -131 135 136 -137 140 141 147 0
x 1 10 14 -15 16 19 -23 28 31 -32 33 35 -36 -38 -45 -48 51 -55 -57 -58 59 62 63 -64 65 66 68 70 -73 -74 75 -76 -77 79 -80 81 82 -84 87 89 -91 92 -94 -97 -98 -100 -103 -105 -106 107 -114 -116 117 -120 121 123 -124 -126 -127 -128 -129 133 134 -135 -139 140 -142 -145 147 150 0
x -2 -4 -5 6 -7 -8 11 -13 16 17 18 -20 -23 -25 -26 -29 31 -34 -39 -41 -42 43 -44 -45 -46 -48 51 53 -54 -56 -58 61 63 -64 -65 66 -67 -73 -74 -76 79 -80 -81 82 -83 85 86 88 -89 91 93 -97 -98 -100 102 104 111 112 116 120 -123 -124 -125 -126 -127 129 131 132 133 136 -138 -139 -140 -142 -143 -148 150 0
x 1 -3 4 -7 -8 10 -11 -14 16 19 -20 -21 22 -23 24 25 -28 29 -31 33 34 36 37 38 39 -40 -41 -45 46 -47 48 52 -57 -58 -59 61 63 -64 -65 -68 71 75 77 79 -81 -82 83 85 -86 88 93 96 -98 -101 106 -112 -113 116 119 -120 -124 -125 -127 128 -129 130 132 -135 139 140 143 -144 -146 -148 -150 0
x 1 2 -3 5 8 10 13 -15 -16 18 19 -20 23 29 -30 -31 -32 -39 42 -43 -44 -45 -48 50 -52 -54 55 56 -57 58 -59 63 -64 -65 67 68 69 -70 -71 72 73 75 79 80 -82 84 -86 87 -89 90 95 96 -100 -104 105 -106 107 -108 -111 -113 114 -115 118 -120 -121 -122 126 -128 131 -134 135 -136 137 138 143 144 145 -146 -149 150 0
x 4 6 9 -11 12 17 -20 -22 26 27 29 32 33 -34 36 37 38 -42 -43 -44 -46 51 52 -53 -54 -56 -59 60 -64 -68 70 -72 -74 75 76 82 83 87 -88 89 -90 -92 96 -97 -102 -106 -112 -116 117 118 -119 -121 -122 127 129 -130 132 137 139 -141 -142 -145 -146 -148 150 0
x -1 3 6 -7 -9 11 12 13 -14 -17 19 21 -22 -25 28 -30 33 34 35 36 37 -39 -41 -42 -44 -46 48 51 56 58 -60 -63 -64 66 -67 72 73 74 -77 -78 81 83 87 89 90 -94 -95 -96 97 -101 -102 104 105 106 107 108 -111 -112 113 115 118 -120 122 -123 -124 -125 126 131 -132 -133 134 -135 -136 -137 -138 -139 140 -141 142 -143 -144 145 -147 148 149 -150 0
x -1 -2 -4 -5 -7 9 -12 -13 -15 -16 -17 21 -23 -25 26 28 34 35 -36 37 -39 41 -44 46 47 -49 52 -56 -59 62 -64 69 74 -76 -79 -82 -83 -84 86 87 88 -89 90 91 92 93 -95 97 -99 -100 110 -111 -117 118 -124 126 127 -128 -130 -134 137 138 139 -141 143 -144 145 -146 -147 149 0
x 1 -3 4 -5 -7 -11 -12 -16 18 -21 22 23 -25 -28 29 -30 -33 34 -35 37 40 41 -42 43 44 -48 -50 -52 54 57 59 60 64 65 -67 70 -72 -73 74 75 78 79 -80 84 85 86 -87 -88 89 -91 92 -95 97 -98 -102 104 105 -106 107 109 -110 -111 -112 -113 -114 -115 116 -117 119 120 124 -125 -127 128 130 131 -133 134 135 136 137 139 141 142 -146 -147 0
x 1 -2 4 5 7 -8 11 13 -15 17 18 19 -20 -21 22 -23 -25 26 28 29 30 -31 33 34 -36 -38 -40 41 44 -46 -47 48 49 -50 52 53 -56 59 61 62 63 -67 68 69 -72 -74 76 -77 -78 -79 -83 84 -87 -90 -92 -93 94 -95 96 -99 100 101 -103 108 -109 110 113 -114 -120 -122 124 125 126 131 -134 -137 -139 140 -141 142 144 145 147 148 0
x -2 -10 11 -12 13 -19 -20 22 -23 24 -25 27 -28 -29 30 -34 -35 36 -39 -41 -43 -44 -45 47 -48 49 -50 -53 -56 58 -60 -61 62 -64 65 -67 70 77 79 83 -86 -87 93 -94 97 100 102 103 105 111 115 117 118 -119 120 -123 124 -125 -127 128 -129 -132 -135 -140 -141 -142 143 144 -148 -149 0
x 2 -4 5 6 8 9 10 -11 -12 -14 17 22 24 26 -27 29 -32 -33 35 -36 -38 39 40 -44 -45 -48 50 -52 53 54 -55 56 -57 63 -64 69 -71 -72 -74 -75 -76 79 -80 82 84 88 89 93 96 97 99 104 -108 -109 -110 -113 -117 -121 -124 127 128 131 -132 134 135 137 138 140 -141 142 144 -145 149 -150 0
x -1 3 -6 8 -10 -13 -15 -19 -20 -21 -22 24 -29 -30 33 -38 -42 -43 -44 -45 46 -49 -51 54 55 58 -59 60 65 68 -69 72 73 74 76 77 -78 -79 -81 -85 -90 -92 97 -101 -103 104 -105 -107 108 -109 110 112 -116 -118 -120 -121 125 128 129 130 -131 133 -134 136 -137 138 139 142 -144 -148 -149 150 0
x 1 -2 3 -5 8 -9 -10 -11 13 -17 -19 21 23 -25 27 -29 -30 32 -33 34 35 36 -37 -38 -44 45 47 -51 53 -55 59 60 -62 63 -65 67 68 -69 -74 75 -77 -80 -82 87 -88 91 -94 96 -97 99 -100 107 108 109 112 -116 118 -120 -122 -123 126 127 128 -132 135 137 138 139 142 -143 -144 146 148 149 150 0
x -1 2 -3 -4 5 -6 7 -8 -9 -10 -11 -13 14 15 17 -21 22 -23 24 -26 -30 36 39 -40 42 44 46 -47 48 -49 -50 51 52 -54 -55 56 -57 -58 -63 64 -68 -69 70 -72 -76 -78 80 -81 -82 -87 89 92 -93 -96 -97 -99 -102 -105 -106 108 -109 -114 115 118 121 -122 -127 128 129 130 -131 -133 -134 -137 -138 -139 -141 -147 0
x -1 2 4 -5 6 7 12 -13 -14 16 -20 21 -22 -24 25 26 28 -30 -31 33 35 -37 38 -39 -41 -45 47 48 -49 50 -51 54 57 58 -60 -61 63 66 -70 71 -72 73 -76 77 78 -79 -80 -81 82 -83 -84 86 -87 88 -89 90 -92 94 95 97 99 -100 -101 -102 105 -107 -108 113 -114 116 117 118 123 125 -126 -129 -130 132 -133 -135 -137 139 -140 -141 -142 144 145 149 0
x 1 -4 -6 -7 8 14 15 19 -20 23 -25 29 -30 -33 34 35 -36 -37 38 39 -41 -43 -44 45 46 47 52 -53 54 -55 -56 -57 -59 -64 -66 -67 68 69 -72 -73 76 -78 -79 80 81 -83 -86 -88 -94 97 -99 -102 104 105 -107 109 112 114 115 -117 -118 123 124 -127 128 -129 130 -132 -133 134 135 136 137 -140 141 -144 -145 -146 147 149 150 0
x 2 -4 -6 -9 -10 -11 -14 -18 -24 -25 26 28 -34 -35 -38 39 -40 42 44 45 -47 -49 -52 -53 -55 -59 -60 62 63 65 -66 68 72 73 74 -75 -76 -80 83 84 -85 -89 92 94 99 -102 103 -105 -109 -111 113 114 116 -117 118 -119 -120 -121 122 -123 125 127 -128 -129 -131 -132 136 -138 -139 140 144 149 -150 0
x -3 -4 6 8 -9 -10 11 12 -15 -16 17 18 21 22 -23 28 29 30 34 -36 38 -40 41 42 43 45 -46 52 -53 57 -58 62 64 -65 68 69 72 73 -76 78 -84 -85 86 -87 -88 89 92 -95 97 101 -103 -106 -112 113 117 119 -120 -122 -124 -126 128 132 134 135 137 -139 -144 145 147 0
x -3 -8 -11 17 24 -25 26 -28 -29 -32 33 34 35 -36 38 39 41 -42 43 -44 -45 -46 47 -48 -49 50 51 -52 -53 55 -56 57 -58 -59 -61 -63 -64 68 69 -73 -74 -75 -76 -78 80 82 -86 -88 -90 93 95 96 -97 98 -99 -100 101 102 -103 104 -105 -106 107 109 -110 111 114 -115 116 120 121 123 127 -130 -139 -140 141 -142 144 145 -148 -149 -150 0
x 1 -5 12 15 17 22 23 24 -26 29 30 -31 -33 -39 -41 49 -51 -54 55 -57 60 -61 -62 -66 -67 68 -73 -74 75 -76 78 81 82 -83 84 88 -95 96 97 98 99 -103 -104 105 107 109 -114 -115 -116 -117 118 119 -121 122 123 -124 126 127 -128 -130 -131 133 134 135 137 -138 -140 -142 143 145 146 -147 148 -149 0
